## VISI

Menjadi institusi pendidikan teologi yang mempersiapkan _pastor-scholar_ yang transformatif dan memberdayakan seluruh umat Allah untuk menghadirkan Injil seutuhnya di tengah konteks masyarakat urban.

##### Pastor-Scholar

memiliki jiwa gembala (kepemimpinan yg melayani di gereja, dunia pendidikan, maupun profesi lain) dan sekaligus pembelajar (semangat untuk terus belajar, daya nalar kritis seorang intelektual Kristen, dan kemampuan berkontribusi terhadap dunia ilmu pengetahuan dari perspektif Kristen)

##### Berita Injil yang utuh

kuasa Injil yg mampu mentransformasi seluruh aspek hidup manusia dan seluruh ciptaan yg sudah jatuh dalam dosa (total depravity), yg kesempurnaannya baru akan terjadi setelah kedatangan Kristus yang kedua, namun cicipan awalnya sudah bisa dirasakan hari ini.

##### Seluruh umat Allah

kuasa penebusan Kristus dinyatakan melalui hidup setiap pengikut Kristus, di tengah keluarga, gereja, dan masyarakat.

##### Masyarakat urban

mahasiswa STTB dipersiapkan dengan fokus melayani masyarakat di perkotaan, tanpa menutup kemungkinan tuntunan lain yang Tuhan berikan kepada mereka di tempat lain.

## MISI

*   Mempersiapkan _pastor-scholar_ yang transfomatif untuk melayani dalam konteks urban.
*   Memberdayakan seluruh umat Allah untuk menghadirkan Injil seutuhnya di tengah konteks masyarakat urban melalui penelitian dan pendidikan non-formal.
*   Mengembangkan tim dosen, struktur organisasi dan keuangan, serta kemitraan untuk mendukung pencapaian visi STTB.

## CORE VALUES

### CHRIST CENTERED

*   Rencana keselamatan Allah atas seisi dunia yg berpusat di dalam karya penebusan Kristus.
*   Mandat budaya dan mandat Injil dalam kerangka metanarasi Alkitab: Penciptaan-Kejatuhan-Penebusan-Penggenapan.

### TEKS – KONTEKS

*   Setia kepada teks: Firman Tuhan dan warisan iman Bapa-Bapa Gereja
*   Responsif terhadap konteks: sosial dan generasional

### PENATALAYANAN

*   Integritas (kejujuran, transparansi, akuntabilitas – waktu, uang, relasi)
*   Dedikasi (melayani dan mengupayakan yang terbaik bagi sesama)
*   Kompetensi (kecakapan akademik, pelayanan, dan penelitian)

### TRANSFORMATIF

*   Karya penebusan Kristus yg transformatif dialami oleh semua stakeholder STTB (mahasiswa, dosen, staf, karyawan, yayasan, mitra pelayanan, gereja, dan masyarakat)

![](https://sttb.ac.id/storage/2022/06/domino-optimo-maximo.png "domino-optimo-maximo")

DOMINO OPTIMO MAXIMO

### TO THE LORD

### THE BEST

### THE GREATEST